# Solution for model p01_budget_-0p000
# Objective value = 0
Risk 0
0 0
1 0
3 0.001
4 30.001
5 3.0002000000000002e+01
6 40.002
7 4.9465475053646514e+01
9 9.8930950107293029e+01
c(0,1)_Rl 0.001
c(0,1)_Ru 0
c(0,3)_Rl 0
c(0,3)_Ru 0
c(3,4)_Rl 0
c(3,4)_Ru 0
c(4,5)_Rl 0
c(4,5)_Ru 0
c(3,5)_Rl 0
c(3,5)_Ru 0
c(1,2)_l 0
c(1,2)_u 4.9464475053646524e+01
c(2,7)_Fl 0
c(2,7)_Fu 0
c(1,7)_Rl 0
c(1,7)_Ru 0
c(5,6)_Rl 0
c(5,6)_Ru 0
c(3,6)_Rl 0
c(3,6)_Ru 0
c(7,8)_l 0
c(7,8)_u 4.9464475053646524e+01
c(1,8)_Fl 0
c(1,8)_Fu 0
c(0,9)_Rl 0
c(0,9)_Ru 6.2930350107293030e+01
c(8,9)_Fl 0
c(8,9)_Fu 0
c(6,9)_Rl 0
c(6,9)_Ru 0
Cost 6.2931350107293035e+01
